&GLOBAL
  PRINT_LEVEL LOW
&END GLOBAL
&FORCE_EVAL
  &DFT
    BASIS_SET_FILE_NAME FOO
    BASIS_SET_FILE_NAME BAR
  &END DFT
  &SUBSYS
    &COORD
      Si 0.0 0.0 0.0
      Si 1.357674375 1.357674375 1.357674375
      Si 2.71534875 2.71534875 0.0
      Si 4.073023125 4.073023125 1.357674375
      Si 2.71534875 0.0 2.71534875
      Si 4.073023125 1.357674375 4.073023125
      Si 0.0 2.71534875 2.71534875
      Si 1.357674375 4.073023125 4.073023125
    &END COORD
    &CELL
      PERIODIC XZ
      PERIODIC XYZ
      B 0.0 5.4306975 0.0
      C 0.0 0.0 5.4306975
      A 5.4306975 0.0 0.0
    &END CELL
    &KIND Si
      BASIS_SET DZVP-GTH-PADE
      POTENTIAL GTH-PADE-q4
    &END KIND
  &END SUBSYS
&END FORCE_EVAL

